SDVRP instances/custom_instances/p03_30_split0.vrp
NAME:p03_30_split
BEST_KNOWN: 0
COMMENT: 0
DIMENSION: 425
CAPACITY: 200
EDGE_WEIGHT_FORMAT: FUNCTION
EDGE_WEIGHT_TYPE: EXACT_2D
NODE_COORD_SECTION
1 0.00000 0.00000
2 21 -29
3 21 -29
4 21 -29
5 21 -29
6 21 -29
7 9 34
8 9 34
9 9 34
10 9 34
11 9 34
12 0 44
13 0 44
14 0 44
15 0 44
16 0 44
17 0 44
18 42 -38
19 42 -38
20 42 -38
21 42 -38
22 -17 -39
23 -17 -39
24 14 16
25 14 16
26 14 16
27 -4 -13
28 -4 -13
29 -4 -13
30 -4 -13
31 -4 -13
32 -4 -13
33 12 18
34 12 18
35 12 18
36 12 18
37 12 18
38 10 -27
39 10 -27
40 10 -27
41 10 -27
42 10 -27
43 10 -27
44 47 0
45 47 0
46 47 0
47 47 0
48 47 0
49 47 0
50 -43 -4
51 -43 -4
52 -43 -4
53 -43 -4
54 -43 -4
55 -43 -4
56 46 -9
57 46 -9
58 46 -9
59 46 -9
60 46 -9
61 46 -9
62 -26 43
63 -26 43
64 -26 43
65 -26 43
66 -26 43
67 -26 43
68 -26 43
69 0 10
70 0 10
71 18 -28
72 18 -28
73 18 -28
74 18 -28
75 18 -28
76 6 48
77 6 48
78 6 48
79 -43 47
80 -43 47
81 37 31
82 37 31
83 37 31
84 37 31
85 37 31
86 37 31
87 37 31
88 -16 -39
89 -16 -39
90 -16 -39
91 -16 -39
92 -16 -39
93 28 41
94 28 41
95 28 41
96 28 41
97 28 41
98 28 41
99 -9 26
100 -9 26
101 -9 26
102 2 -5
103 2 -5
104 2 -5
105 2 -5
106 2 -5
107 2 -5
108 47 1
109 47 1
110 47 1
111 47 1
112 35 -45
113 35 -45
114 35 -45
115 35 -45
116 35 -45
117 35 -45
118 35 -45
119 3 -28
120 3 -28
121 3 -28
122 45 47
123 45 47
124 45 47
125 45 47
126 43 -1
127 43 -1
128 -25 7
129 -25 7
130 -25 7
131 -25 7
132 3 -33
133 3 -33
134 23 -44
135 23 -44
136 23 -44
137 23 -44
138 23 -44
139 7 -25
140 7 -25
141 -37 -6
142 -37 -6
143 -37 -6
144 -37 -6
145 -21 6
146 -21 6
147 -21 6
148 -21 6
149 -21 6
150 -21 6
151 -21 6
152 11 -17
153 11 -17
154 45 -11
155 45 -11
156 45 -11
157 45 -11
158 42 1
159 42 1
160 42 1
161 42 1
162 42 1
163 42 1
164 42 1
165 49 28
166 -25 15
167 -25 15
168 -25 15
169 -25 15
170 -25 15
171 -25 15
172 2 33
173 2 33
174 2 33
175 2 33
176 5 -44
177 5 -44
178 5 -44
179 5 -44
180 49 -35
181 49 -35
182 49 -35
183 49 -35
184 49 -35
185 -24 6
186 -24 6
187 -24 6
188 -24 6
189 -50 14
190 -50 14
191 -50 14
192 -50 14
193 -50 14
194 14 -46
195 14 -46
196 14 -46
197 14 -46
198 14 -46
199 14 -46
200 -39 16
201 -39 16
202 -39 16
203 -39 16
204 -39 16
205 -39 16
206 39 49
207 39 49
208 39 49
209 13 -37
210 13 -37
211 -25 -50
212 -25 -50
213 -25 -50
214 -25 -50
215 -29 -44
216 -29 -44
217 -29 -44
218 -29 -44
219 26 1
220 26 1
221 26 1
222 26 1
223 22 33
224 22 33
225 22 33
226 -27 13
227 -27 13
228 -27 13
229 -27 13
230 -27 13
231 -27 13
232 -47 23
233 -47 23
234 -47 23
235 38 -34
236 38 -34
237 38 -34
238 38 -34
239 -44 28
240 -44 28
241 -44 28
242 38 16
243 38 16
244 38 16
245 38 16
246 38 16
247 38 16
248 -15 -9
249 -15 -9
250 -15 -9
251 -15 -9
252 -43 -35
253 -43 -35
254 -43 -35
255 -43 -35
256 -43 -35
257 -43 -35
258 -43 -35
259 2 -22
260 2 -22
261 2 -22
262 -1 1
263 -1 1
264 -1 1
265 -1 1
266 -1 1
267 -27 32
268 14 -50
269 14 -50
270 14 -50
271 14 -50
272 34 2
273 34 2
274 -22 -1
275 -22 -1
276 -22 -1
277 -22 -1
278 -22 -1
279 -22 -1
280 -22 -1
281 -24 14
282 -24 14
283 -24 14
284 -24 14
285 22 3
286 22 3
287 22 3
288 22 3
289 22 3
290 44 -36
291 44 -36
292 44 -36
293 44 -36
294 44 -36
295 44 -36
296 20 47
297 20 47
298 20 47
299 20 47
300 20 47
301 20 47
302 32 -33
303 32 -33
304 32 -33
305 -15 1
306 -15 1
307 -15 1
308 40 22
309 40 22
310 40 22
311 40 22
312 47 41
313 47 41
314 47 41
315 -22 -19
316 -22 -19
317 -22 -19
318 29 -45
319 29 -45
320 29 -45
321 29 -45
322 29 -45
323 -48 48
324 -48 48
325 -11 8
326 -11 8
327 -11 8
328 -19 -43
329 -19 -43
330 -19 -43
331 -19 -43
332 -19 -43
333 -19 -43
334 -19 -43
335 -19 -43
336 7 -42
337 7 -42
338 -18 43
339 -18 43
340 -18 43
341 -18 43
342 -8 22
343 -8 22
344 -8 22
345 -8 22
346 -8 22
347 1 29
348 1 29
349 1 29
350 1 29
351 24 -4
352 24 -4
353 24 -4
354 26 42
355 26 42
356 14 -30
357 14 -30
358 14 -30
359 14 -30
360 14 -30
361 14 -30
362 14 -30
363 14 -30
364 41 -41
365 41 -41
366 -28 -4
367 -28 -4
368 -28 -4
369 -28 -4
370 -28 -4
371 12 28
372 12 28
373 12 28
374 12 28
375 -32 2
376 -32 2
377 -32 2
378 -32 2
379 -32 2
380 -7 -24
381 -7 -24
382 -7 -24
383 -3 -18
384 -3 -18
385 -3 -18
386 -3 -18
387 14 46
388 14 46
389 20 -27
390 20 -27
391 20 -27
392 20 -27
393 -28 -38
394 -28 -38
395 -28 -38
396 -25 0
397 -25 0
398 -25 0
399 -25 0
400 -25 0
401 8 33
402 8 33
403 8 33
404 8 33
405 8 33
406 8 33
407 20 43
408 20 43
409 14 17
410 14 17
411 14 17
412 2 -12
413 2 -12
414 2 -12
415 7 -5
416 7 -5
417 7 -5
418 7 -5
419 7 -5
420 -47 17
421 -47 17
422 -47 17
423 -47 17
424 -47 17
425 -47 17
DEMAND_SECTION
1 0
2 40
3 20
4 10
5 2
6 2
7 20
8 10
9 2
10 2
11 2
12 40
13 20
14 10
15 2
16 2
17 2
18 20
19 2
20 2
21 2
22 40
23 1
24 40
25 40
26 20
27 40
28 40
29 2
30 2
31 2
32 2
33 40
34 40
35 10
36 2
37 2
38 40
39 40
40 2
41 2
42 2
43 2
44 40
45 20
46 2
47 2
48 2
49 2
50 20
51 2
52 2
53 2
54 2
55 1
56 20
57 10
58 2
59 2
60 2
61 2
62 40
63 40
64 2
65 2
66 2
67 2
68 1
69 40
70 1
71 40
72 10
73 2
74 2
75 2
76 40
77 20
78 10
79 40
80 2
81 40
82 20
83 10
84 2
85 2
86 2
87 2
88 40
89 20
90 2
91 2
92 1
93 20
94 10
95 2
96 2
97 2
98 2
99 40
100 20
101 1
102 40
103 40
104 10
105 2
106 2
107 2
108 40
109 40
110 2
111 2
112 40
113 20
114 2
115 2
116 2
117 2
118 1
119 40
120 20
121 1
122 40
123 10
124 2
125 2
126 40
127 40
128 40
129 10
130 2
131 2
132 40
133 20
134 20
135 2
136 2
137 2
138 1
139 40
140 2
141 20
142 2
143 2
144 1
145 40
146 20
147 2
148 2
149 2
150 2
151 1
152 40
153 2
154 40
155 20
156 2
157 2
158 40
159 20
160 2
161 2
162 2
163 2
164 1
165 40
166 40
167 40
168 10
169 2
170 2
171 2
172 40
173 40
174 10
175 2
176 40
177 40
178 10
179 2
180 20
181 2
182 2
183 2
184 2
185 40
186 20
187 10
188 2
189 40
190 40
191 2
192 2
193 2
194 20
195 10
196 2
197 2
198 2
199 1
200 40
201 10
202 2
203 2
204 2
205 1
206 40
207 40
208 1
209 40
210 2
211 20
212 10
213 2
214 2
215 40
216 20
217 2
218 1
219 20
220 10
221 2
222 2
223 40
224 40
225 2
226 40
227 20
228 2
229 2
230 2
231 2
232 20
233 10
234 1
235 40
236 10
237 2
238 2
239 40
240 40
241 2
242 40
243 20
244 2
245 2
246 2
247 2
248 40
249 20
250 10
251 2
252 40
253 40
254 10
255 2
256 2
257 2
258 1
259 40
260 2
261 2
262 40
263 20
264 2
265 2
266 2
267 40
268 40
269 20
270 10
271 2
272 20
273 10
274 20
275 10
276 2
277 2
278 2
279 2
280 1
281 40
282 20
283 10
284 2
285 40
286 20
287 2
288 2
289 1
290 40
291 20
292 2
293 2
294 2
295 2
296 40
297 2
298 2
299 2
300 2
301 1
302 40
303 20
304 2
305 40
306 20
307 2
308 20
309 2
310 2
311 1
312 40
313 2
314 1
315 40
316 2
317 1
318 40
319 20
320 10
321 2
322 1
323 40
324 10
325 20
326 10
327 1
328 40
329 40
330 10
331 2
332 2
333 2
334 2
335 1
336 40
337 1
338 20
339 2
340 2
341 1
342 20
343 10
344 2
345 2
346 1
347 40
348 40
349 10
350 2
351 40
352 20
353 1
354 40
355 20
356 40
357 20
358 10
359 2
360 2
361 2
362 2
363 1
364 40
365 1
366 40
367 2
368 2
369 2
370 2
371 20
372 2
373 2
374 2
375 20
376 10
377 2
378 2
379 1
380 40
381 2
382 1
383 40
384 20
385 10
386 1
387 40
388 40
389 40
390 20
391 10
392 2
393 40
394 10
395 1
396 20
397 10
398 2
399 2
400 2
401 40
402 40
403 10
404 2
405 2
406 1
407 40
408 1
409 40
410 40
411 1
412 20
413 10
414 2
415 20
416 2
417 2
418 2
419 2
420 20
421 10
422 2
423 2
424 2
425 2
DEPOT_SECTION
1
-1
EOF