SDVRP instances/custom_instances/p03_30_split0.sol
424 -10 8 6 387 386 300 298 295 299 297 296 406 407 371 373 372 -22 21 90 88 87 91 379 380 381 384 383 385 411 413 -23 24 25 410 408 409 -27 28 26 31 29 30 382 247 248 250 249 -32 34 36 33 9 7 405 402 403 401 404 400 -35 207 205 206 124 123 121 122 312 311 313 81 -39 38 37 360 355 358 357 356 362 152 151 -42 41 40 198 197 194 193 195 196 268 269 270 267 135 134 136 137 133 317 319 72 -67 62 63 64 65 61 66 340 339 337 338 100 99 98 343 344 341 345 -69 68 75 77 76 11 16 14 12 15 13 342 -70 73 74 71 5 4 1 3 2 391 389 390 388 -80 82 86 84 85 83 164 307 309 308 310 241 242 244 243 245 246 -89 327 329 328 334 330 331 332 333 213 212 210 211 216 217 214 215 -106 104 103 105 102 101 262 263 264 265 261 -120 119 176 175 177 178 336 335 208 209 359 361 -125 158 157 163 161 160 272 271 285 287 288 286 284 -126 45 44 48 47 43 46 107 109 110 108 162 159 -138 139 131 132 118 260 259 258 412 -146 144 149 148 150 147 145 129 127 130 128 184 185 187 186 -174 172 173 171 348 349 347 346 -181 183 180 179 182 293 292 291 290 294 289 237 234 302 301 303 -189 192 190 191 188 423 422 421 419 420 424 233 232 231 240 239 -221 220 219 218 57 60 58 56 59 55 156 155 154 153 350 352 351 -224 223 222 94 97 96 92 95 93 353 354 370 -225 202 201 204 203 200 199 49 50 53 51 52 54 140 142 141 143 374 375 376 377 378 397 399 -226 227 229 230 228 238 322 323 78 79 266 -283 282 281 280 168 166 170 165 169 167 325 324 326 -306 304 305 278 277 276 273 279 274 275 396 395 398 368 365 367 369 366 -315 316 314 254 256 255 253 252 251 257 392 394 393 -321 318 320 115 111 117 113 114 112 116 363 364 18 17 20 19 235 236 415 417 414 416 418 0 





OBJ=
2740.994
BEST_KNOWN=
0.000